(set-logic LIA)

(declare-const n Int)
(declare-const n! Int)
(declare-const k Int)
(declare-const k! Int)
(declare-const j Int)
(declare-const j! Int)
(declare-const i Int)
(declare-const i! Int)

(declare-const n_0 Int)
(declare-const k_0 Int)
(declare-const j_28 Int)
(declare-const j_22 Int)
(declare-const j_20 Int)
(declare-const i_27 Int)
(declare-const i_21 Int)
(declare-const i_19 Int)

(define-fun inv-f((i Int)(j Int)(k Int)(n Int)) Bool
